# 3d Lennard-Jones melt

units		lj 			# use reduced LJ units
atom_style	atomic		# sets particle properties used in simulation
boundary p p p 			# periodic boundary conditions in x y and z

lattice		fcc 0.01					# starting grid for particles
region		box block 0 10 0 10 0 10 	# set cubic box, larger box leads to more particles 
create_box	1 box                       
create_atoms	1 box                   # place atoms of type 1 in box
mass		1 1.0						# set the mass of particle type 1

group particles type 1					# creates group "particles" from all particles with type 1

velocity	all create 1.44 87287 loop geom 	# initialise velocities

#Interactions 

pair_style	lj/cut 2.5					# set pair-wise interaction potential between particles 
pair_coeff	1 1 1.0 1.0 2.5
pair_modify			shift yes 			# shift LJ potential to 0 at cutoff

neighbor	0.3 bin
neigh_modify    delay 5 every 1

#Computes
compute 1 all msd 						#compute the msd: 4-vector: x, y, z, |x^2+...|


#Integration
fix		1 all nve

fix 	2 all langevin 1 1 1 123 						# this combinations of fixes simulates langevin dynamics  
fix     fix_msd all ave/time 1 1 100 c_1[4] file msd.dat 	#compute time averaged MSD and output to file

# Data Output
dump  	1 all atom 1000 lj_melt.dump		# output configurations ot file every nth step


thermo			1000					# print system some parameters to console and log file 

run		10000	
